(set-info :smt-lib-version 2.6)
(set-logic QF_S)
(set-info :source |
Generated by: Murphy Berzish, Mitja Kulczynski, Federico Mora, Florin Manea, Joel Day, Dirk Nowotka, Vijay Ganesh, Zhengyang Lu
Generated on: 2020-10-01
Description: Translated from a collection of real-world regex queries, AutomataArk, collected by Loris D’Antoni and Fang Wang: https://github.com/lorisdanto/automatark
Application: Evaluate solvers on real-world regex queries
Target solver: Z3str3RE, CVC4, OSTRICH, Z3seq, Z3str3, Z3-Trau
Publications: Berzish, M., Kulczynski, M., Mora, F., Manea, F., Day, J. D., Nowotka, D., & Ganesh, V. (2021, July). An SMT solver for regular expressions and linear arithmetic over string length. In CAV 2021.
|)
(set-info :license "https://creativecommons.org/licenses/by/4.0/")
(set-info :category "industrial")
(set-info :status sat)

(declare-const X String)
(assert (not (str.in_re X (re.++ (str.to_re "/filename=") (re.* (re.comp (str.to_re "\u{a}"))) (str.to_re ".csv/i\u{a}")))))
(assert (str.in_re X (re.++ (str.to_re "/bincode=Wz") ((_ re.loop 32 32) (re.union (re.range "0" "9") (re.range "A" "Z") (re.range "a" "z") (str.to_re "+") (str.to_re "/"))) ((_ re.loop 0 2) (str.to_re "=")) (str.to_re "/Um\u{a}"))))
(assert (not (str.in_re X (re.++ (str.to_re "/filename=") (re.* (re.comp (str.to_re "\u{a}"))) (str.to_re ".doc/i\u{a}")))))
(assert (not (str.in_re X (re.++ (re.union (str.to_re "V") (str.to_re "|") (str.to_re "E") (str.to_re "J") (str.to_re "G") (str.to_re "v") (str.to_re "e") (str.to_re "j") (str.to_re "g")) ((_ re.loop 5 8) (re.range "0" "9")) (str.to_re "\u{a}")))))
(assert (not (str.in_re X (re.++ (str.to_re "/insertBefore(document.body)") (re.+ (re.++ (re.+ (re.comp (str.to_re "?"))) (str.to_re "createElement(") (re.union (str.to_re "\u{22}") (str.to_re "'")) (str.to_re "TR") (re.union (str.to_re "\u{22}") (str.to_re "'")) (str.to_re "))"))) (re.+ (re.comp (str.to_re "?"))) (str.to_re "<body") (re.+ (re.comp (str.to_re "?"))) (str.to_re "</body>/i\u{a}")))))
(check-sat)

(exit)
